3	31	1	8	29	100	0	0	0	0	0	0
800	1	0	0	0	0	0	0	0	0	0	0
800	1	0	0	0	0	0	0	0	0	0	0
800	1	0	0	0	0	0	0	0	0	0	0
100	1	0	79.69	3.39	1	0	0	0	0	0	0
100	1	0	79.69	3.39	1	0	0	0	0	0	0
100	1	0	79.69	3.39	1	0	0	0	0	0	0
100	1	0	79.69	3.39	1	0	0	0	0	0	0
100	1	0	79.69	3.39	1	0	0	0	0	0	0
100	1	0	79.69	3.39	1	0	0	0	0	0	0
100	1	0	79.69	3.39	1	0	0	0	0	0	0
100	1	0	79.69	3.39	1	0	0	0	0	0	0
100	1	0	79.69	3.39	1	0	0	0	0	0	0
100	1	0	79.69	3.39	1	0	0	0	0	0	0
100	1	0	79.69	3.39	1	0	0	0	0	0	0
100	1	0	79.69	3.39	1	0	0	0	0	0	0
100	1	0	79.69	3.39	1	0	0	0	0	0	0
100	1	0	79.69	3.39	1	0	0	0	0	0	0
100	1	0	79.69	3.39	1	0	0	0	0	0	0
100	1	0	79.69	3.39	1	0	0	0	0	0	0
100	1	0	79.69	3.39	1	0	0	0	0	0	0
100	1	0	79.69	3.39	1	0	0	0	0	0	0
100	1	0	79.69	3.39	1	0	0	0	0	0	0
100	1	0	79.69	3.39	1	0	0	0	0	0	0
100	1	0	79.69	3.39	1	0	0	0	0	0	0
100	1	0	79.69	3.39	1	0	0	0	0	0	0
100	1	0	79.69	3.39	1	0	0	0	0	0	0
100	1	0	79.69	3.39	1	0	0	0	0	0	0
100	1	0	79.69	3.39	1	0	0	0	0	0	0
100	1	0	79.69	3.39	1	0	0	0	0	0	0
100	1	0	79.69	3.39	1	0	0	0	0	0	0
100	1	0	79.69	3.39	1	0	0	0	0	0	0
100	1	0	79.69	3.39	1	0	0	0	0	0	0
100	1	0	79.69	3.39	1	0	0	0	0	0	0
100	1	0	79.69	3.39	1	0	0	0	0	0	0
50	150	0	0	0	0	1236	0	0	99999	0	0
25	25	0	0	0	0	1236	0	0	99999	0	0
50	25	0	0	0	0	1236	0	0	99999	0	0
75	25	0	0	0	0	1236	0	0	99999	0	0
25	50	0	0	0	0	1236	0	0	99999	0	0
75	50	0	0	0	0	1236	0	0	99999	0	0
25	75	0	0	0	0	1236	0	0	99999	0	0
50	75	0	0	0	0	1236	0	0	99999	0	0
75	75	0	0	0	0	1236	0	0	99999	0	0
25	25	0	0	0	0	1236	0	0	0	0	0
50	25	0	0	0	0	1236	0	0	0	0	0
75	25	0	0	0	0	1236	0	0	0	0	0
25	50	0	0	0	0	1236	0	0	0	0	0
75	50	0	0	0	0	1236	0	0	0	0	0
25	75	0	0	0	0	1236	0	0	0	0	0
50	75	0	0	0	0	1236	0	0	0	0	0
75	75	0	0	0	0	1236	0	0	0	0	0
40      50      0       0       0       0       1236    0       0       0       0       0
73      52      0       0       0       0       1236    0       0       0       0       0
90      55      0       0       0       0       1236    0       0       0       0       0
55      79      0       0       0       0       1236    0       0       0       0       0
69      89      0       0       0       0       1236    0       0       0       0       0
32      80      0       0       0       0       1236    0       0       0       0       0
39      96      0       0       0       0       1236    0       0       0       0       0
23      80      0       0       0       0       1236    0       0       0       0       0
4	83	0	0	0	0	1236	0	0	0	0	0
18	58	0	0	0	0	1236	0	0	0	0	0
1	56	0	0	0	0	1236	0	0	0	0	0
13	31	0	0	0	0	1236	0	0	0	0	0
-5	38	0	0	0	0	1236	0	0	0	0	0
26	37	0	0	0	0	1236	0	0	0	0	0
28	13	0	0	0	0	1236	0	0	0	0	0
39	31	0	0	0	0	1236	0	0	0	0	0
48	11	0	0	0	0	1236	0	0	0	0	0
59	17	0	0	0	0	1236	0	0	0	0	0
73	23	0	0	0	0	1236	0	0	0	0	0
74	32	0	0	0	0	1236	0	0	0	0	0
90	44	0	0	0	0	1236	0	0	0	0	0
45	68	10	7	3	120	480	90	0	0	0	0
45	70	30	19	11	447	807	90	0	0	0	0
42	66	10	6	4	818	1178	90	0	0	0	0
42	68	10	6	4	541	901	90	0	0	0	0
42	65	10	6	4	871	1231	90	0	0	0	0
40	69	20	12	8	633	993	90	0	0	0	0
40	66	20	12	8	726	1086	90	0	0	0	0
38	68	20	11	9	868	1228	90	0	0	0	0
38	70	10	5	5	866	1226	90	0	0	0	0
35	66	10	5	5	733	1093	90	0	0	0	0
35	69	10	5	5	826	1186	90	0	0	0	0
25	85	20	6	14	140	500	90	0	0	0	0
22	75	30	9	21	856	1216	90	0	0	0	0
22	85	10	3	7	216	576	90	0	0	0	0
20	80	40	10	30	688	1048	90	0	0	0	0
20	85	40	9	31	308	668	90	0	0	0	0
18	75	20	5	15	593	953	90	0	0	0	0
15	75	20	4	16	500	860	90	0	0	0	0
15	80	10	2	8	405	765	90	0	0	0	0
30	50	10	6	4	111	471	90	0	0	0	0
30	52	20	12	8	112	472	90	0	0	0	0
28	52	20	11	9	114	474	90	0	0	0	0
28	55	10	5	5	114	474	90	0	0	0	0
25	50	10	5	5	116	476	90	0	0	0	0
25	52	40	19	21	117	477	90	0	0	0	0
25	55	10	5	5	629	989	90	0	0	0	0
23	52	10	4	6	208	568	90	0	0	0	0
23	55	20	8	12	395	755	90	0	0	0	0
20	50	10	4	6	121	481	90	0	0	0	0
20	55	10	4	6	302	662	90	0	0	0	0
10	35	20	6	14	413	773	90	0	0	0	0
10	40	30	8	22	225	585	90	0	0	0	0
8	40	40	8	32	317	677	90	0	0	0	0
8	45	20	4	16	140	500	90	0	0	0	0
5	35	10	1	9	611	971	90	0	0	0	0
5	45	10	1	9	233	593	90	0	0	0	0
2	40	20	1	19	515	875	90	0	0	0	0
0	40	30	0	30	423	783	90	0	0	0	0
0	45	20	0	20	328	688	90	0	0	0	0
35	30	10	9	1	122	482	90	0	0	0	0
35	32	10	9	1	120	480	90	0	0	0	0
33	32	20	19	1	185	545	90	0	0	0	0
33	35	10	9	1	740	1100	90	0	0	0	0
32	30	10	9	1	277	637	90	0	0	0	0
30	30	10	10	0	369	729	90	0	0	0	0
30	32	30	28	2	554	914	90	0	0	0	0
30	35	10	9	1	647	1007	90	0	0	0	0
28	30	10	9	1	461	821	90	0	0	0	0
28	35	10	8	2	867	1227	90	0	0	0	0
26	32	10	8	2	864	1224	90	0	0	0	0
25	30	10	8	2	777	1137	90	0	0	0	0
25	35	10	7	3	865	1225	90	0	0	0	0
44	5	20	2	18	395	755	90	0	0	0	0
42	10	40	10	30	760	1120	90	0	0	0	0
42	15	10	4	6	851	1211	90	0	0	0	0
40	5	30	4	26	301	661	90	0	0	0	0
40	15	40	15	25	852	1212	90	0	0	0	0
38	5	30	4	26	211	571	90	0	0	0	0
38	15	10	4	6	137	497	90	0	0	0	0
35	5	20	3	17	211	571	90	0	0	0	0
50	30	10	6	4	864	1224	90	0	0	0	0
50	35	20	14	6	120	480	90	0	0	0	0
50	40	50	40	10	116	476	90	0	0	0	0
48	30	10	6	4	215	575	90	0	0	0	0
48	40	10	8	2	114	474	90	0	0	0	0
47	35	10	7	3	870	1230	90	0	0	0	0
47	40	10	9	1	114	474	90	0	0	0	0
45	30	10	7	3	308	668	90	0	0	0	0
45	35	10	8	2	403	763	90	0	0	0	0
95	30	30	9	21	338	698	90	0	0	0	0
95	35	20	7	13	433	793	90	0	0	0	0
53	30	10	6	4	850	1210	90	0	0	0	0
92	30	10	3	7	288	648	90	0	0	0	0
53	35	50	33	17	121	481	90	0	0	0	0
45	65	20	14	6	117	477	90	0	0	0	0
90	35	10	4	6	528	888	90	0	0	0	0
88	30	10	3	7	488	848	90	0	0	0	0
88	35	20	8	12	620	980	90	0	0	0	0
87	30	10	3	7	397	757	90	0	0	0	0
85	25	10	3	7	584	944	90	0	0	0	0
85	35	30	12	18	713	1073	90	0	0	0	0
75	55	20	15	5	415	775	90	0	0	0	0
72	55	10	8	2	508	868	90	0	0	0	0
70	58	20	17	3	601	961	90	0	0	0	0
68	60	30	26	4	694	1054	90	0	0	0	0
66	55	10	8	2	128	488	90	0	0	0	0
65	55	20	17	3	127	487	90	0	0	0	0
65	60	30	28	2	787	1147	90	0	0	0	0
63	58	10	9	1	862	1222	90	0	0	0	0
60	55	10	9	1	122	482	90	0	0	0	0
60	60	10	10	0	864	1224	90	0	0	0	0
67	85	20	16	4	410	770	90	0	0	0	0
65	85	40	31	9	502	862	90	0	0	0	0
65	82	10	8	2	316	676	90	0	0	0	0
62	80	30	23	7	223	583	90	0	0	0	0
60	80	10	8	2	138	498	90	0	0	0	0
60	85	30	21	9	597	957	90	0	0	0	0
58	75	20	15	5	135	495	90	0	0	0	0
55	80	10	7	3	787	1147	90	0	0	0	0
55	85	20	13	7	692	1052	90	0	0	0	0
